
Gurobi 7.0.2 (linux64, Matlab) logging started Sun Sep  2 08:55:41 2018


Gurobi 7.0.2 (linux64) logging started Sun Sep  2 08:55:41 2018

Optimize a model with 12660 rows, 11615 columns and 40152 nonzeros
Coefficient statistics:
  Matrix range     [6e-04, 1e+08]
  Objective range  [2e-01, 7e-01]
  Bounds range     [1e+00, 1e+08]
  RHS range        [1e+00, 1e+08]
Iteration    Objective       Primal Inf.    Dual Inf.      Time
       0   -1.0464732e+07   0.000000e+00   0.000000e+00      0s

Solved in 0 iterations and 0.01 seconds
Optimal objective -1.046473219e+07
